

******************************************************************************
This program contains Ipopt, a library for large-scale nonlinear optimization.
 Ipopt is released as open source code under the Eclipse Public License (EPL).
         For more information visit http://projects.coin-or.org/Ipopt
******************************************************************************

This is Ipopt version 3.12.8, running with linear solver mumps.
NOTE: Other linear solvers might be more efficient (see Ipopt documentation).

Number of nonzeros in equality constraint Jacobian...:       44
Number of nonzeros in inequality constraint Jacobian.:        0
Number of nonzeros in Lagrangian Hessian.............:       28

Total number of variables............................:       19
                     variables with only lower bounds:        0
                variables with lower and upper bounds:        7
                     variables with only upper bounds:        0
Total number of equality constraints.................:       14
Total number of inequality constraints...............:        0
        inequality constraints with only lower bounds:        0
   inequality constraints with lower and upper bounds:        0
        inequality constraints with only upper bounds:        0

iter    objective    inf_pr   inf_du lg(mu)  ||d||  lg(rg) alpha_du alpha_pr  ls
   0 -7.7636050e+08 6.46e+04 4.26e-14  -1.0 0.00e+00    -  0.00e+00 0.00e+00   0
   1 -8.3258227e+08 1.99e+03 9.41e-01  -1.0 2.11e+04    -  9.46e-01 1.00e+00f  1
   2 -8.3108153e+08 1.60e+00 1.55e-03  -1.7 1.37e+03    -  1.00e+00 1.00e+00h  1
   3 -8.3107989e+08 3.37e-04 1.70e-06  -3.8 3.66e+01    -  1.00e+00 1.00e+00h  1
   4 -8.3107989e+08 1.87e-08 1.12e-10  -5.7 2.82e-01    -  1.00e+00 1.00e+00h  1
   5 -8.3107989e+08 5.82e-11 2.86e-14  -8.6 2.78e-03    -  1.00e+00 1.00e+00h  1
   6 -8.3107989e+08 4.37e-11 1.91e-14 -11.4 3.78e-06    -  1.00e+00 1.00e+00h  1

Number of Iterations....: 6

                                   (scaled)                 (unscaled)
Objective...............:  -3.4563474211066460e+02   -8.3107989151010787e+08
Dual infeasibility......:   1.9067615186553053e-14    4.5848144384522631e-08
Constraint violation....:   1.3265455226932525e-14    4.3655745685100555e-11
Complementarity.........:   3.7807846911337300e-12    9.0909094142059799e-06
Overall NLP error.......:   3.7807846911337300e-12    9.0909094142059799e-06


Number of objective function evaluations             = 7
Number of objective gradient evaluations             = 7
Number of equality constraint evaluations            = 7
Number of inequality constraint evaluations          = 0
Number of equality constraint Jacobian evaluations   = 7
Number of inequality constraint Jacobian evaluations = 0
Number of Lagrangian Hessian evaluations             = 6
Total CPU secs in IPOPT (w/o function evaluations)   =      0.000
Total CPU secs in NLP function evaluations           =      0.000

EXIT: Optimal Solution Found.
 
Ipopt 3.12.8: Optimal Solution Found
